set VV := 0 1 2 3 4 5 6 7 8 9 10 11 12 13 14 15 16 17 18 19 20 21 22 23 24 25 26 27 28 29 30 31 32 33 34 35 36 37 ;
set VS := 0 1 2 3 4 5 6 7 8 9 10 11 12 13 14 15 16 17 18 19 20 21 22 23 24 25 26 27 28 29 30 31 32 33 34 35 36 37 38 39 40 41 42 43 44 45 46 47 48 49 50 51 52 53 54 55 56 57 58 59 60 61 62 63 64 65 66 67 68 69 70 71 72 73 74 75 76 77 78 79 80 ;
param cv := 
0 21
1 16
2 23
3 16
4 14
5 14
6 21
7 23
8 21
9 10
10 24
11 14
12 22
13 18
14 16
15 22
16 23
17 14
18 19
19 17
20 21
21 17
22 12
23 14
24 16
25 20
26 19
27 22
28 21
29 10
30 16
31 13
32 24
33 14
34 18
35 23
36 12
37 22
;
param cs := 
0 21
1 29
2 29
3 25
4 21
5 27
6 40
7 33
8 26
9 38
10 31
11 34
12 25
13 25
14 26
15 39
16 30
17 36
18 23
19 28
20 27
21 22
22 36
23 39
24 40
25 36
26 24
27 36
28 30
29 29
30 21
31 40
32 35
33 32
34 20
35 40
36 23
37 30
38 32
39 32
40 30
41 23
42 38
43 34
44 22
45 39
46 24
47 32
48 25
49 30
50 38
51 39
52 23
53 31
54 37
55 20
56 38
57 40
58 39
59 31
60 33
61 30
62 24
63 25
64 35
65 23
66 29
67 31
68 38
69 38
70 30
71 36
72 34
73 25
74 40
75 24
76 30
77 36
78 35
79 24
80 20
;
param bv:	 0 1 2 3 4 5 6 7 8 9 10 11 12 13 14 15 16 17 18 19 20 21 22 23 24 25 26 27 28 29 30 31 32 33 34 35 36 37 := 
		0 0 0 0 0 0 0 0 0 0 0 0 0 0 0 0 0 0 0 0 0 0 0 0 0 0 22 0 0 0 0 0 0 0 0 0 0 0 0 
		1 0 0 0 0 0 0 0 0 21 0 0 23 0 0 0 11 12 0 0 0 0 0 0 0 0 0 0 0 0 0 0 0 0 0 0 0 0 24 
		2 0 0 0 0 0 0 0 0 0 0 0 0 0 12 0 0 0 0 0 0 0 0 0 20 0 0 0 0 0 0 0 0 0 0 0 0 0 0 
		3 0 0 0 0 0 0 0 0 18 0 0 0 0 0 0 0 0 0 0 0 0 25 0 0 0 0 0 0 0 0 0 0 0 0 0 0 0 0 
		4 0 0 0 0 0 0 0 0 0 0 0 0 0 12 0 23 0 0 0 0 0 0 0 0 0 0 0 0 0 0 0 0 0 0 0 0 0 0 
		5 0 0 0 0 0 0 0 0 0 0 0 0 0 0 0 0 0 0 0 0 0 0 0 0 0 0 17 0 0 0 0 0 0 0 0 0 0 0 
		6 0 0 0 0 0 0 0 0 0 0 0 0 0 0 0 13 15 0 24 0 0 0 25 0 0 0 0 22 0 0 0 0 18 0 0 0 12 0 
		7 0 0 0 0 0 0 0 0 0 0 0 0 0 0 0 0 0 16 0 0 0 0 0 0 10 0 0 0 0 0 0 0 0 20 0 0 23 0 
		8 0 0 0 0 0 0 0 0 0 0 0 0 0 0 0 0 0 0 0 0 0 11 0 0 0 0 0 0 0 0 0 0 16 0 0 0 0 0 
		9 0 0 0 0 0 0 0 0 0 0 0 0 11 0 0 0 22 0 0 0 0 0 0 0 0 0 0 0 16 18 0 0 0 0 0 0 0 0 
		10 0 0 0 0 0 0 0 0 0 0 0 0 0 0 21 0 0 0 0 0 0 0 0 0 0 21 0 25 0 0 0 11 0 0 0 0 0 16 
		11 0 0 0 0 0 0 0 0 0 0 0 0 0 0 0 0 0 0 0 0 0 0 0 0 0 24 0 0 0 0 19 0 0 0 0 0 0 0 
		12 0 0 0 0 0 0 0 0 0 0 0 0 0 0 0 0 0 0 19 0 0 0 13 0 0 0 0 0 0 0 0 0 0 0 0 0 0 20 
		13 0 0 0 0 0 0 0 0 0 0 0 0 0 0 0 0 0 17 0 0 0 0 0 0 0 0 0 0 0 0 13 0 0 0 16 0 0 0 
		14 0 0 0 0 0 0 0 0 0 0 0 0 0 0 0 0 0 0 0 0 0 0 0 18 0 0 0 0 0 0 0 0 0 0 0 0 11 0 
		15 0 0 0 0 0 0 0 0 0 0 0 0 0 0 0 0 25 0 22 0 0 0 0 0 0 0 0 0 0 0 14 0 0 0 0 0 0 0 
		16 0 0 0 0 0 0 0 0 0 0 0 0 0 0 0 0 0 0 0 0 0 0 0 0 13 0 0 0 0 0 0 0 0 0 0 0 0 0 
		17 0 0 0 0 0 0 0 0 0 0 0 0 0 0 0 0 0 0 0 0 0 0 0 0 0 0 0 0 0 0 14 0 0 0 20 0 0 0 
		18 0 0 0 0 0 0 0 0 0 0 0 0 0 0 0 0 0 0 0 24 0 0 0 0 0 0 0 0 0 0 0 0 0 0 0 0 0 0 
		19 0 0 0 0 0 0 0 0 0 0 0 0 0 0 0 0 0 0 0 0 0 0 0 0 0 0 0 21 0 0 0 0 0 0 0 0 0 0 
		20 0 0 0 0 0 0 0 0 0 0 0 0 0 0 0 0 0 0 0 0 0 0 0 0 0 0 0 17 0 0 0 0 0 16 0 0 0 0 
		21 0 0 0 0 0 0 0 0 0 0 0 0 0 0 0 0 0 0 0 0 0 0 0 14 0 0 0 25 0 0 0 11 0 24 0 0 0 0 
		22 0 0 0 0 0 0 0 0 0 0 0 0 0 0 0 0 0 0 0 0 0 0 0 0 0 23 21 0 0 0 0 0 0 0 0 0 23 0 
		23 0 0 0 0 0 0 0 0 0 0 0 0 0 0 0 0 0 0 0 0 0 0 0 0 0 0 0 0 0 0 0 0 0 0 0 0 0 0 
		24 0 0 0 0 0 0 0 0 0 0 0 0 0 0 0 0 0 0 0 0 0 0 0 0 0 0 0 0 0 0 0 0 0 0 0 0 0 20 
		25 0 0 0 0 0 0 0 0 0 0 0 0 0 0 0 0 0 0 0 0 0 0 0 0 0 0 0 0 0 0 0 0 0 0 0 0 16 0 
		26 0 0 0 0 0 0 0 0 0 0 0 0 0 0 0 0 0 0 0 0 0 0 0 0 0 0 0 0 0 0 0 0 0 0 0 0 0 0 
		27 0 0 0 0 0 0 0 0 0 0 0 0 0 0 0 0 0 0 0 0 0 0 0 0 0 0 0 0 0 0 0 0 0 0 0 15 0 0 
		28 0 0 0 0 0 0 0 0 0 0 0 0 0 0 0 0 0 0 0 0 0 0 0 0 0 0 0 0 0 0 0 0 0 0 0 0 0 0 
		29 0 0 0 0 0 0 0 0 0 0 0 0 0 0 0 0 0 0 0 0 0 0 0 0 0 0 0 0 0 0 0 0 0 0 0 0 0 0 
		30 0 0 0 0 0 0 0 0 0 0 0 0 0 0 0 0 0 0 0 0 0 0 0 0 0 0 0 0 0 0 0 19 0 0 18 0 0 0 
		31 0 0 0 0 0 0 0 0 0 0 0 0 0 0 0 0 0 0 0 0 0 0 0 0 0 0 0 0 0 0 0 0 0 0 17 0 0 0 
		32 0 0 0 0 0 0 0 0 0 0 0 0 0 0 0 0 0 0 0 0 0 0 0 0 0 0 0 0 0 0 0 0 0 12 0 0 0 0 
		33 0 0 0 0 0 0 0 0 0 0 0 0 0 0 0 0 0 0 0 0 0 0 0 0 0 0 0 0 0 0 0 0 0 0 0 0 0 0 
		34 0 0 0 0 0 0 0 0 0 0 0 0 0 0 0 0 0 0 0 0 0 0 0 0 0 0 0 0 0 0 0 0 0 0 0 0 0 0 
		35 0 0 0 0 0 0 0 0 0 0 0 0 0 0 0 0 0 0 0 0 0 0 0 0 0 0 0 0 0 0 0 0 0 0 0 0 23 0 
		36 0 0 0 0 0 0 0 0 0 0 0 0 0 0 0 0 0 0 0 0 0 0 0 0 0 0 0 0 0 0 0 0 0 0 0 0 0 0 
		37 0 0 0 0 0 0 0 0 0 0 0 0 0 0 0 0 0 0 0 0 0 0 0 0 0 0 0 0 0 0 0 0 0 0 0 0 0 0 
;
param bs:	 0 1 2 3 4 5 6 7 8 9 10 11 12 13 14 15 16 17 18 19 20 21 22 23 24 25 26 27 28 29 30 31 32 33 34 35 36 37 38 39 40 41 42 43 44 45 46 47 48 49 50 51 52 53 54 55 56 57 58 59 60 61 62 63 64 65 66 67 68 69 70 71 72 73 74 75 76 77 78 79 80 := 
		0 0 0 0 0 39 0 0 0 0 0 0 0 0 0 0 0 0 0 0 0 0 0 0 0 0 0 0 0 0 0 0 0 0 0 0 32 0 0 24 0 0 0 0 0 0 0 0 0 0 0 0 0 0 0 0 0 0 0 0 0 0 0 0 0 0 0 0 0 0 0 0 0 0 0 0 0 0 0 0 0 0 
		1 0 0 0 0 0 0 0 0 0 0 0 0 0 0 0 0 0 0 0 0 0 0 34 0 0 0 0 0 0 0 0 0 0 0 30 0 0 0 0 0 0 0 0 0 0 34 0 0 0 0 0 0 35 0 0 0 0 0 0 0 0 0 0 0 0 0 0 0 0 0 0 37 20 0 0 0 0 0 0 0 0 
		2 0 0 0 0 0 0 0 0 0 0 0 0 0 0 0 0 0 0 0 36 36 0 0 0 0 36 0 0 0 0 0 0 0 0 0 23 0 0 0 0 0 0 0 0 0 0 29 0 0 0 0 0 29 0 28 0 40 0 30 0 0 0 0 0 0 0 0 0 0 0 0 0 0 0 0 0 0 0 0 0 0 
		3 0 0 0 0 0 0 0 0 0 21 31 0 0 27 0 0 29 31 0 0 0 0 0 0 0 0 0 0 0 20 0 0 36 23 40 20 0 38 0 0 0 0 0 24 0 0 0 0 0 0 26 0 22 0 0 0 33 0 0 0 0 0 0 0 0 0 20 0 0 0 0 0 0 0 0 0 0 29 39 0 0 
		4 39 0 0 0 0 0 0 0 0 0 0 0 0 0 0 0 0 0 0 0 0 0 0 0 0 0 0 36 0 0 0 0 0 0 0 0 0 37 0 0 0 0 0 0 0 0 0 0 0 0 0 0 0 0 0 38 0 0 0 0 40 0 0 0 0 0 0 39 0 0 0 0 0 0 0 0 0 0 0 0 0 
		5 0 0 0 0 0 0 0 0 0 0 0 0 0 0 0 0 40 0 0 0 0 0 0 0 0 0 0 0 0 0 0 0 0 34 0 0 0 0 0 0 0 0 0 0 0 0 0 0 0 29 0 0 39 0 0 0 0 0 0 0 0 0 0 0 0 26 0 0 0 0 0 0 0 0 0 0 0 0 0 0 0 
		6 0 0 0 0 0 0 0 0 0 0 0 0 0 0 0 0 0 37 0 0 0 0 0 31 0 0 0 0 38 0 0 0 0 21 0 0 0 0 0 0 0 0 0 0 32 0 0 35 0 0 0 37 0 0 26 0 0 0 0 0 0 0 0 38 0 0 0 0 0 34 0 0 0 0 0 0 0 0 0 0 0 
		7 0 0 0 0 0 0 0 0 0 0 0 0 0 0 0 0 0 0 0 0 21 20 0 0 0 21 0 29 0 0 25 0 0 0 0 0 0 0 0 0 0 0 0 0 0 0 25 0 0 0 0 0 0 0 0 20 26 0 30 0 0 0 0 0 0 0 0 0 0 0 20 0 0 0 0 0 0 37 0 0 0 
		8 0 0 0 0 0 0 0 0 0 0 26 0 0 37 0 0 0 0 0 0 0 0 27 0 0 0 0 0 0 0 0 0 0 0 0 0 0 0 0 0 0 0 0 0 0 0 0 0 40 0 0 0 0 0 0 20 0 0 0 0 0 0 0 0 0 31 37 0 0 0 26 0 33 0 0 0 0 0 0 38 0 
		9 0 0 0 21 0 0 0 0 0 0 0 0 0 0 0 0 0 0 0 0 0 0 0 0 0 28 28 0 30 0 26 0 0 0 0 40 0 0 38 0 0 0 24 0 23 0 0 0 0 0 35 36 0 0 20 0 0 0 0 0 0 0 0 0 0 0 0 0 0 25 0 0 0 30 0 0 0 0 0 0 0 
		10 0 0 0 31 0 0 0 0 26 0 0 0 0 0 0 0 0 0 0 34 0 0 0 0 0 0 0 0 0 0 0 26 0 0 0 0 38 0 0 0 0 0 0 27 0 0 0 0 0 26 0 0 0 0 0 0 0 0 0 0 0 0 0 0 0 0 0 0 0 0 0 0 31 0 0 0 0 0 27 0 0 
		11 0 0 0 0 0 0 0 0 0 0 0 0 0 0 0 0 0 0 0 0 0 20 0 0 0 0 0 0 0 0 0 0 34 0 0 0 39 0 0 21 24 0 0 0 0 0 0 0 0 0 0 0 0 0 0 0 0 0 0 0 0 0 0 25 0 0 0 0 0 0 0 0 26 0 0 0 0 24 0 0 0 
		12 0 0 0 0 0 0 0 0 0 0 0 0 0 0 30 0 0 0 0 0 33 0 21 0 0 0 24 0 0 0 0 22 0 0 31 0 37 0 40 0 0 0 0 33 0 0 0 0 0 36 0 0 0 0 0 21 0 0 0 0 0 0 22 0 0 0 0 0 29 0 0 0 40 0 0 0 0 0 0 0 0 
		13 0 0 0 27 0 0 0 0 37 0 0 0 0 0 0 0 0 0 0 26 0 0 0 0 0 0 0 0 0 0 0 0 0 25 24 0 0 0 35 0 0 0 0 0 0 0 0 0 29 0 0 0 0 23 0 0 0 0 0 0 23 38 27 0 0 0 0 0 0 0 0 0 0 0 0 0 0 0 26 0 0 
		14 0 0 0 0 0 0 0 0 0 0 0 0 30 0 0 0 0 0 0 23 0 0 0 0 0 0 0 0 0 0 0 0 0 0 0 0 0 0 38 0 25 0 0 0 0 0 0 0 0 0 0 0 27 0 0 0 0 0 0 0 0 0 0 0 0 0 0 0 0 0 0 0 0 0 0 0 0 0 0 0 0 
		15 0 0 0 0 0 0 0 0 0 0 0 0 0 0 0 0 0 0 0 0 0 0 0 0 0 35 0 0 0 0 0 0 0 0 0 0 0 0 38 0 0 0 0 0 0 0 0 0 0 0 0 0 0 0 0 0 0 30 31 0 0 0 0 0 31 0 0 0 0 0 0 0 0 20 0 0 0 0 0 0 0 
		16 0 0 0 29 0 40 0 0 0 0 0 0 0 0 0 0 0 0 0 0 0 29 0 0 26 0 31 0 0 0 0 0 0 0 0 0 0 36 0 0 0 0 0 0 0 0 0 0 0 35 0 0 30 0 0 0 0 0 0 0 0 0 0 0 0 20 0 0 0 0 0 0 0 0 0 0 0 0 0 0 0 
		17 0 0 0 31 0 0 37 0 0 0 0 0 0 0 0 0 0 0 0 0 0 0 0 0 0 0 0 0 29 0 0 0 0 0 0 0 22 0 0 0 0 0 35 0 0 0 0 0 0 0 27 0 0 0 37 0 0 0 0 0 0 0 0 31 0 0 0 0 0 31 0 0 0 0 0 0 0 0 34 0 0 
		18 0 0 0 0 0 0 0 0 0 0 0 0 0 0 0 0 0 0 0 0 0 0 0 0 0 0 33 32 27 22 0 0 0 0 0 0 0 36 0 32 0 38 0 0 0 0 0 0 0 31 0 0 0 0 0 0 0 33 0 0 0 0 26 0 0 0 0 0 0 40 0 0 0 0 0 0 0 0 0 0 0 
		19 0 0 36 0 0 0 0 0 0 0 34 0 0 26 23 0 0 0 0 0 0 0 0 0 0 0 0 0 0 0 0 0 0 0 0 0 0 0 0 0 0 0 0 0 0 0 0 0 0 0 0 35 0 0 0 0 0 0 0 0 0 0 26 0 0 26 0 0 0 0 0 0 0 0 26 0 0 0 32 0 0 
		20 0 0 36 0 0 0 0 21 0 0 0 0 33 0 0 0 0 0 0 0 0 25 36 0 0 0 0 0 0 22 20 0 0 0 0 0 37 0 0 0 0 0 0 0 0 0 34 0 0 0 23 0 27 0 0 0 0 0 27 35 0 0 0 0 0 0 0 0 0 0 0 0 0 39 0 0 0 0 0 0 38 
		21 0 0 0 0 0 0 0 20 0 0 0 20 0 0 0 0 29 0 0 0 25 0 0 0 0 0 0 0 0 0 0 0 34 34 30 33 28 0 0 0 0 0 0 20 0 0 0 0 0 0 0 0 0 0 0 35 0 0 0 0 0 0 30 0 0 25 31 0 0 21 0 38 35 0 0 0 0 38 31 0 0 
		22 0 34 0 0 0 0 0 0 27 0 0 0 21 0 0 0 0 0 0 0 36 0 0 0 0 0 0 0 0 0 0 0 0 0 0 23 0 0 0 0 0 0 0 0 0 0 0 0 0 0 0 0 0 0 0 0 0 0 0 0 0 0 25 0 36 0 0 0 0 0 0 0 24 0 0 0 0 0 0 0 0 
		23 0 0 0 0 0 0 31 0 0 0 0 0 0 0 0 0 0 0 0 0 0 0 0 0 40 0 0 0 29 0 0 0 0 0 39 0 0 0 0 0 0 0 0 0 0 0 0 0 0 0 24 0 0 0 36 0 0 29 0 0 0 0 0 0 0 0 38 22 28 38 38 0 0 0 0 0 0 0 0 0 0 
		24 0 0 0 0 0 0 0 0 0 0 0 0 0 0 0 0 26 0 0 0 0 0 0 40 0 0 0 0 0 0 30 0 39 0 20 30 0 0 0 0 0 0 0 0 0 0 0 0 0 0 0 0 0 0 0 37 0 30 0 0 0 0 30 0 0 0 0 0 0 21 0 0 0 0 0 0 39 0 24 37 0 
		25 0 0 36 0 0 0 0 21 0 28 0 0 0 0 0 35 0 0 0 0 0 0 0 0 0 0 0 0 0 0 0 0 0 0 25 0 39 0 0 0 0 0 0 0 33 0 20 0 0 0 0 0 0 0 0 0 28 36 29 0 0 0 0 0 0 0 0 0 0 0 0 0 0 26 0 0 0 0 0 0 0 
		26 0 0 0 0 0 0 0 0 0 28 0 0 24 0 0 0 31 0 33 0 0 0 0 0 0 0 0 0 0 0 0 28 0 0 0 34 0 0 31 0 0 0 0 0 0 0 0 0 0 0 0 0 0 24 0 0 0 0 0 37 0 0 22 0 0 0 23 0 0 0 0 0 0 26 0 0 0 0 0 31 0 
		27 0 0 0 0 36 0 0 29 0 0 0 0 0 0 0 0 0 0 32 0 0 0 0 0 0 0 0 0 0 0 0 0 32 0 0 0 0 30 0 0 0 32 37 0 40 0 0 28 0 0 0 0 0 0 0 0 0 23 0 0 0 0 0 0 0 0 0 0 28 0 25 0 0 0 25 0 0 0 0 0 0 
		28 0 0 0 0 0 0 38 0 0 30 0 0 0 0 0 0 0 29 27 0 0 0 0 29 0 0 0 0 0 0 0 0 0 0 34 21 0 33 0 0 0 0 0 0 0 0 33 38 0 0 28 0 0 0 0 0 0 0 0 0 0 0 0 22 0 0 0 0 0 0 0 0 0 0 0 0 0 0 0 0 0 
		29 0 0 0 20 0 0 0 0 0 0 0 0 0 0 0 0 0 0 22 0 22 0 0 0 0 0 0 0 0 0 0 0 0 0 0 0 0 0 32 0 0 0 0 0 0 0 0 0 0 0 0 0 0 0 0 0 0 0 0 0 0 0 0 0 39 0 0 0 0 0 0 0 0 0 0 0 0 0 24 0 0 
		30 0 0 0 0 0 0 0 25 0 26 0 0 0 0 0 0 0 0 0 0 20 0 0 0 30 0 0 0 0 0 0 24 0 0 0 0 37 0 0 39 0 0 0 21 0 0 0 0 0 38 0 0 0 0 0 0 0 0 32 0 0 0 0 0 0 0 0 0 0 0 0 0 0 0 0 0 37 0 0 0 0 
		31 0 0 0 0 0 0 0 0 0 0 26 0 22 0 0 0 0 0 0 0 0 0 0 0 0 0 28 0 0 0 24 0 0 0 0 0 0 0 25 0 0 0 0 0 0 0 0 0 0 0 0 0 0 0 0 0 0 0 0 0 0 0 0 0 0 0 0 0 0 0 0 0 0 27 0 0 0 0 0 0 0 
		32 0 0 0 36 0 0 0 0 0 0 0 34 0 0 0 0 0 0 0 0 0 34 0 0 39 0 0 32 0 0 0 0 0 0 0 0 0 0 22 0 0 32 21 0 0 0 0 20 0 0 0 0 0 22 0 39 0 0 0 0 0 0 21 21 0 0 0 0 0 0 32 0 0 34 0 0 0 0 0 29 34 
		33 0 0 0 23 0 34 21 0 0 0 0 0 0 25 0 0 0 0 0 0 0 34 0 0 0 0 0 0 0 0 0 0 0 0 37 0 0 0 0 0 0 0 0 0 29 0 0 0 0 0 33 24 0 38 0 28 0 0 0 0 0 29 0 0 0 0 28 0 0 0 0 0 0 0 0 0 0 0 0 39 0 
		34 0 30 0 40 0 0 0 0 0 0 0 0 31 24 0 0 0 0 0 0 0 30 0 39 20 25 0 0 34 0 0 0 0 37 0 0 0 0 0 0 0 0 34 0 0 0 0 0 0 0 0 0 0 29 0 0 0 0 0 0 0 0 0 0 0 0 0 0 30 0 0 0 0 0 0 0 0 38 0 0 0 
		35 32 0 23 20 0 0 0 0 0 40 0 0 0 0 0 0 0 0 0 0 0 33 23 0 30 0 34 0 21 0 0 0 0 0 0 0 0 0 0 0 0 0 0 0 0 0 0 0 0 0 35 0 0 0 0 0 0 0 0 0 0 0 0 0 0 0 0 0 0 31 0 0 0 0 0 0 0 0 0 0 25 
		36 0 0 0 0 0 0 0 0 0 0 38 39 37 0 0 0 0 22 0 0 37 28 0 0 0 39 0 0 0 0 37 0 0 0 0 0 0 0 0 0 0 0 0 0 0 0 0 0 0 0 0 0 0 0 0 22 0 0 0 28 0 0 0 38 0 0 0 0 0 0 0 33 0 0 37 0 0 0 0 0 0 
		37 0 0 0 38 37 0 0 0 0 0 0 0 0 0 0 0 36 0 36 0 0 0 0 0 0 0 0 30 33 0 0 0 0 0 0 0 0 0 0 0 0 0 31 0 0 0 0 0 0 0 0 0 0 0 0 0 0 0 0 0 0 0 0 0 0 0 0 0 0 0 0 0 0 0 0 0 0 0 0 0 0 
		38 24 0 0 0 0 0 0 0 0 38 0 0 40 35 38 38 0 0 0 0 0 0 0 0 0 0 31 0 0 32 0 25 22 0 0 0 0 0 0 0 0 20 0 0 0 0 0 21 0 0 0 0 0 0 0 0 0 0 0 0 0 0 0 33 0 29 0 0 0 0 0 0 0 21 0 36 0 0 0 0 0 
		39 0 0 0 0 0 0 0 0 0 0 0 21 0 0 0 0 0 0 32 0 0 0 0 0 0 0 0 0 0 0 39 0 0 0 0 0 0 0 0 0 0 0 0 0 0 0 40 0 0 0 0 0 0 0 21 34 0 0 0 0 0 0 0 0 0 0 0 0 31 0 0 40 0 29 38 0 0 0 0 0 0 
		40 0 0 0 0 0 0 0 0 0 0 0 24 0 0 25 0 0 0 0 0 0 0 0 0 0 0 0 0 0 0 0 0 0 0 0 0 0 0 0 0 0 0 0 24 0 0 0 0 0 0 0 20 26 0 0 0 25 0 0 0 0 0 0 0 0 0 0 0 0 0 0 0 0 0 0 0 0 32 0 0 0 
		41 0 0 0 0 0 0 0 0 0 0 0 0 0 0 0 0 0 0 38 0 0 0 0 0 0 0 0 32 0 0 0 0 32 0 0 0 0 0 20 0 0 0 23 0 0 32 0 0 0 0 0 0 0 0 0 0 0 0 0 0 0 0 0 0 0 0 0 0 35 0 22 0 0 0 0 0 0 0 0 0 0 
		42 0 0 0 0 0 0 0 0 0 24 0 0 0 0 0 0 0 35 0 0 0 0 0 0 0 0 0 37 0 0 0 0 21 0 34 0 0 31 0 0 0 23 0 0 38 0 0 0 0 0 28 0 0 0 0 0 0 0 0 0 34 29 0 0 0 0 0 22 0 38 21 0 0 22 0 0 0 0 0 0 21 
		43 0 0 0 24 0 0 0 0 0 0 27 0 33 0 0 0 0 0 0 0 0 20 0 0 0 0 0 0 0 0 21 0 0 0 0 0 0 0 0 0 24 0 0 0 0 0 0 0 21 0 0 30 0 0 28 27 0 25 0 0 0 0 0 0 0 0 0 0 0 27 0 25 24 0 0 0 0 0 0 32 0 
		44 0 0 0 0 0 0 32 0 0 23 0 0 0 0 0 0 0 0 0 0 0 0 0 0 0 33 0 40 0 0 0 0 0 29 0 0 0 0 0 0 0 0 38 0 0 0 0 0 0 0 0 0 0 0 0 0 0 0 0 0 29 0 0 0 20 0 31 0 0 22 0 0 0 0 0 0 0 0 0 0 24 
		45 0 34 0 0 0 0 0 0 0 0 0 0 0 0 0 0 0 0 0 0 0 0 0 0 0 0 0 0 0 0 0 0 0 0 0 0 0 0 0 0 0 32 0 0 0 0 0 0 0 0 0 0 0 0 0 0 0 0 0 0 0 0 0 31 0 0 0 0 0 0 0 0 0 0 0 0 0 0 0 27 0 
		46 0 0 29 0 0 0 0 25 0 0 0 0 0 0 0 0 0 0 0 0 34 0 0 0 0 20 0 0 33 0 0 0 0 0 0 0 0 0 0 40 0 0 0 0 0 0 0 0 0 0 0 0 0 0 0 0 0 0 25 36 0 0 0 0 26 0 0 0 0 0 0 0 0 29 33 0 0 23 0 0 0 
		47 0 0 0 0 0 0 35 0 0 0 0 0 0 0 0 0 0 0 0 0 0 0 0 0 0 0 0 28 38 0 0 0 20 0 0 0 0 0 21 0 0 0 0 0 0 0 0 0 0 0 0 0 0 0 0 0 0 0 0 0 0 0 0 0 0 0 0 0 0 0 0 0 0 0 0 0 0 0 0 0 0 
		48 0 0 0 0 0 0 0 0 40 0 0 0 0 29 0 0 0 0 0 0 0 0 0 0 0 0 0 0 0 0 0 0 0 0 0 0 0 0 0 0 0 0 0 21 0 0 0 0 0 0 0 0 0 0 0 0 0 0 0 0 0 0 0 0 36 0 0 0 0 24 0 0 0 0 0 0 0 0 39 0 0 
		49 0 0 0 0 0 29 0 0 0 0 26 0 36 0 0 0 35 0 31 0 0 0 0 0 0 0 0 0 0 0 38 0 0 0 0 0 0 0 0 0 0 0 0 0 0 0 0 0 0 0 0 0 40 0 26 0 0 30 0 0 0 0 0 0 0 0 0 0 0 0 0 0 0 0 0 0 0 0 0 0 0 
		50 0 0 0 26 0 0 0 0 0 35 0 0 0 0 0 0 0 27 0 0 23 0 0 24 0 0 0 0 28 0 0 0 0 33 0 35 0 0 0 0 0 0 28 0 0 0 0 0 0 0 0 0 0 0 0 0 0 0 0 0 27 0 0 25 0 0 0 0 0 37 0 0 0 0 0 0 0 0 0 0 0 
		51 0 0 0 0 0 0 37 0 0 36 0 0 0 0 0 0 0 0 0 35 0 0 0 0 0 0 0 0 0 0 0 0 0 24 0 0 0 0 0 0 20 0 0 30 0 0 0 0 0 0 0 0 0 0 0 0 0 0 0 38 0 0 0 37 0 24 0 0 35 0 34 38 0 0 0 0 0 0 0 0 0 
		52 0 35 29 22 0 39 0 0 0 0 0 0 0 0 27 0 30 0 0 0 27 0 0 0 0 0 0 0 0 0 0 0 0 0 0 0 0 0 0 0 26 0 0 0 0 0 0 0 0 40 0 0 0 0 0 0 0 0 0 0 36 0 0 0 25 0 25 0 0 0 0 36 0 0 0 39 0 0 0 0 0 
		53 0 0 0 0 0 0 0 0 0 0 0 0 0 23 0 0 0 0 0 0 0 0 0 0 0 0 24 0 0 0 0 0 22 38 29 0 0 0 0 0 0 0 0 0 0 0 0 0 0 0 0 0 0 0 0 0 0 0 0 0 0 0 0 0 0 27 22 0 0 30 31 0 0 0 0 0 30 0 0 0 0 
		54 0 0 28 0 0 0 26 0 0 20 0 0 0 0 0 0 0 37 0 0 0 0 0 36 0 0 0 0 0 0 0 0 0 0 0 0 0 0 0 21 0 0 0 28 0 0 0 0 0 26 0 0 0 0 0 0 0 0 0 0 0 0 0 0 0 0 0 0 0 0 0 0 0 0 0 0 0 0 33 0 0 
		55 0 0 0 0 38 0 0 20 20 0 0 0 21 0 0 0 0 0 0 0 0 35 0 0 37 0 0 0 0 0 0 0 39 28 0 0 22 0 0 34 0 0 0 27 0 0 0 0 0 0 0 0 0 0 0 0 0 35 0 0 0 0 0 0 0 0 20 0 0 0 0 0 0 38 33 0 0 0 0 0 0 
		56 0 0 40 33 0 0 0 26 0 0 0 0 0 0 0 0 0 0 0 0 0 0 0 0 0 28 0 0 0 0 0 0 0 0 0 0 0 0 0 0 25 0 0 0 0 0 0 0 0 0 0 0 0 0 0 0 0 0 0 0 0 0 0 0 0 0 0 0 0 0 0 0 0 26 0 0 0 0 0 0 0 
		57 0 0 0 0 0 0 0 0 0 0 0 0 0 0 0 30 0 0 33 0 0 0 0 29 30 36 0 23 0 0 0 0 0 0 0 0 0 0 0 0 0 0 0 25 0 0 0 0 0 30 0 0 0 0 0 35 0 0 0 0 37 0 34 36 35 0 0 0 0 0 32 0 0 30 0 0 0 0 0 0 0 
		58 0 0 30 0 0 0 0 30 0 0 0 0 0 0 0 31 0 0 0 0 27 0 0 0 0 29 0 0 0 0 32 0 0 0 0 0 0 0 0 0 0 0 0 0 0 0 25 0 0 0 0 0 0 0 0 0 0 0 0 0 0 0 0 0 0 0 0 0 0 0 0 0 0 0 0 0 0 0 0 0 0 
		59 0 0 0 0 0 0 0 0 0 0 0 0 0 0 0 0 0 0 0 0 35 0 0 0 0 0 37 0 0 0 0 0 0 0 0 0 28 0 0 0 0 0 0 0 0 0 36 0 0 0 0 38 0 0 0 0 0 0 0 0 0 0 0 0 25 0 0 0 0 0 0 0 0 0 0 0 0 0 0 0 0 
		60 0 0 0 0 40 0 0 0 0 0 0 0 0 23 0 0 0 0 0 0 0 0 0 0 0 0 0 0 0 0 0 0 0 0 0 0 0 0 0 0 0 0 34 0 29 0 0 0 0 0 27 0 36 0 0 0 0 37 0 0 0 0 38 26 0 0 0 0 0 28 0 0 0 0 40 0 0 0 0 0 0 
		61 0 0 0 0 0 0 0 0 0 0 0 0 0 38 0 0 0 0 0 0 0 0 0 0 0 0 0 0 0 0 0 0 0 29 0 0 0 0 0 0 0 0 29 0 0 0 0 0 0 0 0 0 0 0 0 0 0 0 0 0 0 0 0 0 0 0 0 27 21 0 0 0 0 0 0 0 0 0 0 0 0 
		62 0 0 0 0 0 0 0 0 0 0 0 0 22 27 0 0 0 0 26 26 0 30 25 0 30 0 22 0 0 0 0 0 21 0 0 0 0 0 0 0 0 0 0 0 0 0 0 0 0 0 0 0 0 0 0 0 0 34 0 0 38 0 0 0 0 0 0 0 0 0 0 0 0 0 0 0 27 0 40 34 0 
		63 0 0 0 0 0 0 38 0 0 0 0 25 0 0 0 0 0 31 0 0 0 0 0 0 0 0 0 0 22 0 0 0 21 0 0 0 38 0 33 0 0 0 0 0 0 31 0 0 0 0 25 37 0 0 0 0 0 36 0 0 26 0 0 0 0 0 0 0 0 0 24 35 0 0 0 0 0 0 0 0 0 
		64 0 0 0 0 0 0 0 0 0 0 0 0 0 0 0 31 0 0 0 0 0 0 36 0 0 0 0 0 0 39 0 0 0 0 0 0 0 0 0 0 0 0 0 0 20 0 26 0 36 0 0 0 25 0 0 0 0 35 0 25 0 0 0 0 0 0 0 0 26 0 0 0 0 0 0 0 0 0 0 0 0 
		65 0 0 0 0 0 26 0 0 31 0 0 0 0 0 0 0 20 0 0 26 0 25 0 0 0 0 0 0 0 0 0 0 0 0 0 0 0 0 29 0 0 0 0 0 0 0 0 0 0 0 0 24 0 27 0 0 0 0 0 0 0 0 0 0 0 0 0 0 0 0 0 0 33 0 0 0 0 0 0 30 0 
		66 0 0 0 20 0 0 0 0 37 0 0 0 0 0 0 0 0 0 0 0 0 31 0 38 0 0 23 0 0 0 0 0 0 28 0 0 0 0 0 0 0 0 0 0 31 0 0 0 0 0 0 0 25 22 0 20 0 0 0 0 0 0 0 0 0 0 0 0 24 0 0 0 0 0 0 0 0 0 0 23 0 
		67 0 0 0 0 39 0 0 0 0 0 0 0 0 0 0 0 0 0 0 0 0 0 0 22 0 0 0 0 0 0 0 0 0 0 0 0 0 0 0 0 0 0 22 0 0 0 0 0 0 0 0 0 0 0 0 0 0 0 0 0 0 27 0 0 0 0 0 0 34 0 0 0 0 0 0 31 0 0 40 0 33 
		68 0 0 0 0 0 0 0 0 0 0 0 0 29 0 0 0 0 0 0 0 0 0 0 28 0 0 0 28 0 0 0 0 0 0 30 0 0 0 0 31 0 35 0 0 0 0 0 0 0 0 0 35 0 0 0 0 0 0 0 0 0 21 0 0 26 0 24 34 0 36 0 26 0 0 0 0 0 0 0 0 0 
		69 0 0 0 0 0 0 34 0 0 25 0 0 0 0 0 0 0 31 40 0 0 21 0 38 21 0 0 0 0 0 0 0 0 0 0 31 0 0 0 0 0 0 38 27 22 0 0 0 24 0 37 0 0 30 0 0 0 0 0 0 28 0 0 0 0 0 0 0 36 0 0 0 0 0 0 0 0 0 0 0 0 
		70 0 0 0 0 0 0 0 20 26 0 0 0 0 0 0 0 0 0 0 0 0 0 0 38 0 0 0 25 0 0 0 0 32 0 0 0 0 0 0 0 0 22 21 0 0 0 0 0 0 0 0 34 0 31 0 0 0 32 0 0 0 0 0 24 0 0 0 0 0 0 0 0 0 0 0 0 0 0 0 0 0 
		71 0 37 0 0 0 0 0 0 0 0 0 0 0 0 0 0 0 0 0 0 0 38 0 0 0 0 0 0 0 0 0 0 0 0 0 0 33 0 0 40 0 0 0 25 0 0 0 0 0 0 0 38 36 0 0 0 0 0 0 0 0 0 0 35 0 0 0 0 26 0 0 0 0 0 0 0 0 0 0 0 0 
		72 0 20 0 0 0 0 0 0 33 0 31 26 40 0 0 0 0 0 0 0 0 35 24 0 0 0 0 0 0 0 0 0 0 0 0 0 0 0 0 0 0 0 0 24 0 0 0 0 0 0 0 0 0 0 0 0 0 0 0 0 0 0 0 0 0 33 0 0 0 0 0 0 0 0 0 0 0 0 0 0 0 
		73 0 0 0 0 0 0 0 0 0 30 0 0 0 0 0 20 0 0 0 0 39 0 0 0 0 26 26 0 0 0 0 27 34 0 0 0 0 0 21 29 0 0 22 0 0 0 29 0 0 0 0 0 0 0 0 38 26 30 0 0 0 0 0 0 0 0 0 0 0 0 0 0 0 0 21 0 0 0 0 0 0 
		74 0 0 0 0 0 0 0 0 0 0 0 0 0 0 0 0 0 0 0 26 0 0 0 0 0 0 0 25 0 0 0 0 0 0 0 0 37 0 0 38 0 0 0 0 0 0 33 0 0 0 0 0 0 0 0 33 0 0 0 0 40 0 0 0 0 0 0 0 0 0 0 0 0 21 0 0 0 0 0 0 0 
		75 0 0 0 0 0 0 0 0 0 0 0 0 0 0 0 0 0 0 0 0 0 0 0 0 0 0 0 0 0 0 0 0 0 0 0 0 0 0 36 0 0 0 0 0 0 0 0 0 0 0 0 0 39 0 0 0 0 0 0 0 0 0 0 0 0 0 0 31 0 0 0 0 0 0 0 0 0 0 0 38 0 
		76 0 0 0 0 0 0 0 0 0 0 0 0 0 0 0 0 0 0 0 0 0 0 0 0 39 0 0 0 0 0 37 0 0 0 0 0 0 0 0 0 0 0 0 0 0 0 0 0 0 0 0 0 0 30 0 0 0 0 0 0 0 0 27 0 0 0 0 0 0 0 0 0 0 0 0 0 0 22 0 0 0 
		77 0 0 0 29 0 0 0 37 0 0 0 24 0 0 0 0 0 0 0 0 0 38 0 0 0 0 0 0 0 0 0 0 0 0 38 0 0 0 0 0 32 0 0 0 0 0 23 0 0 0 0 0 0 0 0 0 0 0 0 0 0 0 0 0 0 0 0 0 0 0 0 0 0 0 0 0 22 0 0 0 0 
		78 0 0 0 39 0 0 0 0 0 0 27 0 0 26 0 0 0 34 0 32 0 31 0 0 24 0 0 0 0 24 0 0 0 0 0 0 0 0 0 0 0 0 0 0 0 0 0 0 39 0 0 0 0 0 33 0 0 0 0 0 0 0 40 0 0 0 0 40 0 0 0 0 0 0 0 0 0 0 0 0 21 
		79 0 0 0 0 0 0 0 0 38 0 0 0 0 0 0 0 0 0 0 0 0 0 0 0 37 0 31 0 0 0 0 0 29 39 0 0 0 0 0 0 0 0 0 32 0 27 0 0 0 0 0 0 0 0 0 0 0 0 0 0 0 0 34 0 0 30 23 0 0 0 0 0 0 0 0 38 0 0 0 0 0 
		80 0 0 0 0 0 0 0 0 0 0 0 0 0 0 0 0 0 0 0 0 38 0 0 0 0 0 0 0 0 0 0 0 34 0 0 25 0 0 0 0 0 0 21 0 24 0 0 0 0 0 0 0 0 0 0 0 0 0 0 0 0 0 0 0 0 0 0 33 0 0 0 0 0 0 0 0 0 0 21 0 0 
;
